Minimize
  obj: x0 + x1 + x2 + x3 + x4 + x5 + x6 + x7 + x8

Subject To
  c0: x2 + x3 + x4 + x7 + x8 = 39
  c1: x0 + x4 + x5 + x8 = 31
  c2: x1 + x3 + x4 + x5 + x6 + x7 + x8 = 46
  c3: x1 + x3 + x7 + x8 = 31
  c4: x1 + x3 + x4 + x5 + x6 + x7 = 40
  c5: x0 + x2 + x3 + x7 + x8 = 46
  c6: x0 + x4 + x5 + x6 + x7 = 34

Bounds
  x0 >= 0
  x1 >= 0
  x2 >= 0
  x3 >= 0
  x4 >= 0
  x5 >= 0
  x6 >= 0
  x7 >= 0
  x8 >= 0

Generals
  x0 x1 x2 x3 x4 x5 x6 x7 x8

End
